1000
999 1000
999
998 999
998
997 998
997
996 997
996
995 996
995
994 995
994
993 994
993
992 993
992
991 992
991
990 991
990
989 990
989
988 989
988
987 988
987
986 987
986
985 986
985
984 985
984
983 984
983
982 983
982
981 982
981
980 981
980
979 980
979
978 979
978
977 978
977
976 977
976
975 976
975
974 975
974
973 974
973
972 973
972
971 972
971
970 971
970
969 970
969
968 969
968
967 968
967
966 967
966
965 966
965
964 965
964
963 964
963
962 963
962
961 962
961
960 961
960
959 960
959
958 959
958
957 958
957
956 957
956
955 956
955
954 955
954
953 954
953
952 953
952
951 952
951
950 951
950
949 950
949
948 949
948
947 948
947
946 947
946
945 946
945
944 945
944
943 944
943
942 943
942
941 942
941
940 941
940
939 940
939
938 939
938
937 938
937
936 937
936
935 936
935
934 935
934
933 934
933
932 933
932
931 932
931
930 931
930
929 930
929
928 929
928
927 928
927
926 927
926
925 926
925
924 925
924
923 924
923
922 923
922
921 922
921
920 921
920
919 920
919
918 919
918
917 918
917
916 917
916
915 916
915
914 915
914
913 914
913
912 913
912
911 912
911
910 911
910
909 910
909
908 909
908
907 908
907
906 907
906
905 906
905
904 905
904
903 904
903
902 903
902
901 902
901
900 901
900
899 900
899
898 899
898
897 898
897
896 897
896
895 896
895
894 895
894
893 894
893
892 893
892
891 892
891
890 891
890
889 890
889
888 889
888
887 888
887
886 887
886
885 886
885
884 885
884
883 884
883
882 883
882
881 882
881
880 881
880
879 880
879
878 879
878
877 878
877
876 877
876
875 876
875
874 875
874
873 874
873
872 873
872
871 872
871
870 871
870
869 870
869
868 869
868
867 868
867
866 867
866
865 866
865
864 865
864
863 864
863
862 863
862
861 862
861
860 861
860
859 860
859
858 859
858
857 858
857
856 857
856
855 856
855
854 855
854
853 854
853
852 853
852
851 852
851
850 851
850
849 850
849
848 849
848
847 848
847
846 847
846
845 846
845
844 845
844
843 844
843
842 843
842
841 842
841
840 841
840
839 840
839
838 839
838
837 838
837
836 837
836
835 836
835
834 835
834
833 834
833
832 833
832
831 832
831
830 831
830
829 830
829
828 829
828
827 828
827
826 827
826
825 826
825
824 825
824
823 824
823
822 823
822
821 822
821
820 821
820
819 820
819
818 819
818
817 818
817
816 817
816
815 816
815
814 815
814
813 814
813
812 813
812
811 812
811
810 811
810
809 810
809
808 809
808
807 808
807
806 807
806
805 806
805
804 805
804
803 804
803
802 803
802
801 802
801
800 801
800
799 800
799
798 799
798
797 798
797
796 797
796
795 796
795
794 795
794
793 794
793
792 793
792
791 792
791
790 791
790
789 790
789
788 789
788
787 788
787
786 787
786
785 786
785
784 785
784
783 784
783
782 783
782
781 782
781
780 781
780
779 780
779
778 779
778
777 778
777
776 777
776
775 776
775
774 775
774
773 774
773
772 773
772
771 772
771
770 771
770
769 770
769
768 769
768
767 768
767
766 767
766
765 766
765
764 765
764
763 764
763
762 763
762
761 762
761
760 761
760
759 760
759
758 759
758
757 758
757
756 757
756
755 756
755
754 755
754
753 754
753
752 753
752
751 752
751
750 751
750
749 750
749
748 749
748
747 748
747
746 747
746
745 746
745
744 745
744
743 744
743
742 743
742
741 742
741
740 741
740
739 740
739
738 739
738
737 738
737
736 737
736
735 736
735
734 735
734
733 734
733
732 733
732
731 732
731
730 731
730
729 730
729
728 729
728
727 728
727
726 727
726
725 726
725
724 725
724
723 724
723
722 723
722
721 722
721
720 721
720
719 720
719
718 719
718
717 718
717
716 717
716
715 716
715
714 715
714
713 714
713
712 713
712
711 712
711
710 711
710
709 710
709
708 709
708
707 708
707
706 707
706
705 706
705
704 705
704
703 704
703
702 703
702
701 702
701
700 701
700
699 700
699
698 699
698
697 698
697
696 697
696
695 696
695
694 695
694
693 694
693
692 693
692
691 692
691
690 691
690
689 690
689
688 689
688
687 688
687
686 687
686
685 686
685
684 685
684
683 684
683
682 683
682
681 682
681
680 681
680
679 680
679
678 679
678
677 678
677
676 677
676
675 676
675
674 675
674
673 674
673
672 673
672
671 672
671
670 671
670
669 670
669
668 669
668
667 668
667
666 667
666
665 666
665
664 665
664
663 664
663
662 663
662
661 662
661
660 661
660
659 660
659
658 659
658
657 658
657
656 657
656
655 656
655
654 655
654
653 654
653
652 653
652
651 652
651
650 651
650
649 650
649
648 649
648
647 648
647
646 647
646
645 646
645
644 645
644
643 644
643
642 643
642
641 642
641
640 641
640
639 640
639
638 639
638
637 638
637
636 637
636
635 636
635
634 635
634
633 634
633
632 633
632
631 632
631
630 631
630
629 630
629
628 629
628
627 628
627
626 627
626
625 626
625
624 625
624
623 624
623
622 623
622
621 622
621
620 621
620
619 620
619
618 619
618
617 618
617
616 617
616
615 616
615
614 615
614
613 614
613
612 613
612
611 612
611
610 611
610
609 610
609
608 609
608
607 608
607
606 607
606
605 606
605
604 605
604
603 604
603
602 603
602
601 602
601
600 601
600
599 600
599
598 599
598
597 598
597
596 597
596
595 596
595
594 595
594
593 594
593
592 593
592
591 592
591
590 591
590
589 590
589
588 589
588
587 588
587
586 587
586
585 586
585
584 585
584
583 584
583
582 583
582
581 582
581
580 581
580
579 580
579
578 579
578
577 578
577
576 577
576
575 576
575
574 575
574
573 574
573
572 573
572
571 572
571
570 571
570
569 570
569
568 569
568
567 568
567
566 567
566
565 566
565
564 565
564
563 564
563
562 563
562
561 562
561
560 561
560
559 560
559
558 559
558
557 558
557
556 557
556
555 556
555
554 555
554
553 554
553
552 553
552
551 552
551
550 551
550
549 550
549
548 549
548
547 548
547
546 547
546
545 546
545
544 545
544
543 544
543
542 543
542
541 542
541
540 541
540
539 540
539
538 539
538
537 538
537
536 537
536
535 536
535
534 535
534
533 534
533
532 533
532
531 532
531
530 531
530
529 530
529
528 529
528
527 528
527
526 527
526
525 526
525
524 525
524
523 524
523
522 523
522
521 522
521
520 521
520
519 520
519
518 519
518
517 518
517
516 517
516
515 516
515
514 515
514
513 514
513
512 513
512
511 512
511
510 511
510
509 510
509
508 509
508
507 508
507
506 507
506
505 506
505
504 505
504
503 504
503
502 503
502
501 502
501
500 501